
Log started (V20.1.0.0) Tue Aug  9 11:08:48 2022


Problem 'pp.lp' read.
Read time = 0.00 sec. (0.00 ticks)
Version identifier: 20.1.0.0 | 2020-11-10 | 9bedb6d68
Tried aggregator 1 time.
No LP presolve or aggregator reductions.
Presolve time = 0.00 sec. (0.00 ticks)

Iteration log . . .
Iteration:     1   Dual infeasibility =             1.999998
Iteration:     4   Dual objective     =            57.000000

Dual simplex - Optimal:  Objective =  5.7000000000e+01
Solution time =    0.00 sec.  Iterations = 4 (3)
Deterministic time = 0.01 ticks  (7.63 ticks/sec)


Variable Name           Solution Value
x1                           22.000000
x2                           13.000000
x6                            7.000000
All other variables matching '*' are 0.
